PARTS = { BBa_J23100, BBa_E0040, BBa_B0015, BBa_B0034, BBa_B0010, BBa_R0010, BBa_B0032, BBa_B0012, BBa_E1010, BBa_B0030, BBa_R0040, BBa_C0040 };

% part name, #a, #t, #g, #c
table = [| BBa_J23100, 7, 9, 10, 9
		 | BBa_E0040, 248, 192, 143, 137
		 | BBa_B0015, 28, 39, 31, 31
		 | BBa_B0034, 8, 0, 4, 0
		 | BBa_B0010, 20, 23, 19, 18
		 | BBa_R0010, 48, 49, 49, 54
		 | BBa_B0032, 6, 1, 3, 3
		 | BBa_B0012, 5, 14, 10, 12
		 | BBa_E1010, 195, 157, 174, 180
		 | BBa_B0030, 9, 2, 4, 0
		 | BBa_R0040, 17, 14, 11, 12
		 | BBa_C0040, 223, 183, 150, 129 |];

group_regulatory = { BBa_J23100, BBa_R0010, BBa_R0040 };
group_rbs = { BBa_B0034, BBa_B0032, BBa_B0030 };
group_coding = { BBa_E0040, BBa_E1010, BBa_C0040 };
group_terminator = { BBa_B0015, BBa_B0010, BBa_B0012 }